p tw 43 50
1 2
2 13
3 4
4 5
4 6
5 37
6 7
7 8
8 9
8 28
9 10
10 11
10 17
11 12
12 14
12 25
13 24
13 40
14 15
15 16
15 28
16 30
17 18
18 19
19 20
20 21
20 22
21 22
22 23
23 37
24 35
25 26
26 27
27 30
28 29
29 30
30 31
31 32
32 33
32 34
33 34
34 36
35 39
36 37
37 38
39 3
40 41
41 42
42 43
43 3
